WARNING: for repeatability, setting FPU to use double precision
============================[ Problem Statistics ]=============================
|                                                                             |
|  Number of variables:            50                                         |
|  Number of clauses:             218                                         |
|  Parse time:                   0.00 s                                       |
|                                                                             |
============================[ Search Statistics ]==============================
| Conflicts |          ORIGINAL         |          LEARNT          | Progress |
|           |    Vars  Clauses Literals |    Limit  Clauses Lit/Cl |          |
===============================================================================
===============================================================================
restarts              : 1
conflicts             : 10             (7215 /sec)
decisions             : 17             (0.00 % random) (12266 /sec)
propagations          : 194            (139971 /sec)
conflict literals     : 29             (23.68 % deleted)
Memory used           : 20.00 MB
CPU time              : 0.001386 s

SATISFIABLE
